Traveling Salesman Problem/TSP_generados/Aleatorio1620391412_15.tsp
NAME: Aleatorio1620391412_15.tsp
COMMENT: Randomly generated scenario
TYPE: TSP
DIMENSION: 15
EDGE_WEIGHT_TYPE: ATT
NODE_COORD_SECTION
1 45.55 16.4
2 22.04 46.05
3 8.76 24.71
4 32.48 48.98
5 11.5 22.01
6 20.08 42.6
7 7.65 28.09
8 47.39 11.96
9 29.22 25.24
10 17.53 28.14
11 2.91 13.56
12 7.81 8.94
13 24.96 43.41
14 33.85 35.71
15 8.32 42.87
