Traveling Salesman Problem/TSP_generados/Aleatorio1620391412_15.opt.tour
NAME: Aleatorio1620391412_15.opt.tour
COMMENT: Optimal solution for Aleatorio1620391412_15 (164.1588209651045)
TYPE: TOUR
DIMENSION: 15
TOUR_SECTION
1 8 9 10 5 12 11 3 7 15 6 2 13 4 14
-1
EOF
